c nombre: 23
c densidad: 0.3
p edges 30 133
e 1 5
e 1 20
e 1 21
e 1 25
e 1 30
e 2 7
e 2 13
e 2 16
e 2 18
e 2 19
e 2 24
e 2 25
e 2 28
e 2 30
e 3 5
e 3 6
e 3 10
e 3 11
e 3 14
e 3 18
e 3 24
e 3 26
e 4 5
e 4 7
e 4 8
e 4 9
e 4 10
e 4 11
e 4 13
e 4 23
e 4 28
e 4 29
e 5 8
e 5 10
e 5 11
e 5 12
e 5 15
e 5 24
e 6 7
e 6 10
e 6 12
e 6 16
e 6 19
e 6 21
e 6 23
e 6 25
e 6 26
e 6 27
e 6 30
e 7 9
e 7 20
e 8 11
e 8 15
e 8 21
e 8 24
e 8 25
e 8 27
e 9 14
e 9 15
e 9 18
e 9 20
e 9 21
e 9 26
e 9 28
e 9 30
e 10 12
e 10 13
e 10 20
e 10 26
e 10 27
e 10 28
e 11 15
e 11 18
e 11 19
e 11 22
e 11 24
e 11 25
e 11 28
e 11 29
e 11 30
e 12 14
e 12 16
e 12 17
e 12 20
e 12 22
e 12 26
e 13 18
e 13 19
e 14 18
e 14 19
e 14 22
e 14 29
e 15 16
e 15 21
e 15 22
e 16 19
e 16 23
e 16 28
e 16 30
e 17 18
e 17 19
e 18 22
e 18 24
e 18 25
e 18 26
e 18 27
e 18 30
e 19 27
e 20 21
e 20 22
e 20 24
e 20 28
e 21 23
e 21 24
e 21 25
e 21 26
e 21 27
e 21 29
e 22 26
e 22 27
e 22 29
e 24 27
e 24 29
e 24 30
e 25 26
e 25 27
e 25 28
e 25 29
e 25 30
e 27 28
e 27 29
e 28 29
e 28 30
